language ESSENCE' 1.0
$ loaded file: carseqdata/csplib-instance-57
letting numcars=200
letting numclasses=24
letting numoptions=5
letting optMax=[1, 2, 1, 2, 1]
letting windowSize=[2, 3, 3, 5, 5]
letting numberPerClass=[6, 2, 23, 10, 1, 18, 31, 5, 10, 1, 3, 6, 16, 5, 1, 3, 2, 17, 17, 1, 2, 3, 8, 9]
letting optionsRequired=[[1, 1, 0, 1, 0], [0, 0, 0, 1, 1], [0, 0, 0, 1, 0], [1, 0, 0, 1, 0], [0, 0, 1, 0, 1], [1, 1, 0, 0, 0], [0, 1, 0, 0, 0], [0, 0, 1, 1, 0], [0, 0, 0, 0, 1], [1, 0, 1, 0, 1], [1, 1, 1, 0, 0], [1, 0, 1, 0, 0], [0, 1, 0, 1, 0], [1, 0, 0, 0, 1], [1, 0, 1, 1, 0], [0, 1, 1, 0, 1], [1, 1, 0, 0, 1], [1, 0, 0, 0, 0], [0, 0, 1, 0, 0], [1, 1, 1, 1, 0], [1, 1, 1, 0, 1], [0, 1, 1, 1, 0], [0, 1, 1, 0, 0], [0, 1, 0, 0, 1]]
